1873484
0 11 10465
11 31 4813
31 55 1427
55 39 3489
39 4 3130
4 59 7979
59 28 6419
28 24 9940
24 29 1249
29 40 5056
40 63 28668
63 10 35955
10 65 13370
65 25 57991
25 66 114164
66 37 15200
37 6 28523
6 33 42208
33 54 20835
54 45 30985
45 42 69394
42 5 115051
5 22 16175
22 48 4353
48 18 8895
18 41 27461
41 60 10110
60 2 12947
2 20 17216
20 23 30212
23 12 24653
12 53 13536
53 44 46205
44 67 50028
67 34 19070
34 52 19869
52 36 6554
36 50 21633
50 38 11004
38 61 8740
61 49 83460
49 43 70964
43 9 75759
9 17 28652
17 56 27906
56 32 88918
32 13 124360
13 51 39276
51 21 46274
21 30 39447
30 27 65445
27 35 23031
35 58 8563
58 15 10880
15 62 14689
62 7 41929
7 14 6874
14 57 6904
57 8 1777
8 16 5356
16 26 1445
26 1 15575
1 47 7938
47 3 7248
3 19 4440
19 64 13332
64 46 23646
46 0 14424
